c Sudoku solution
p cnf 729 0
126 0
168 0
223 0
279 0
339 0
341 0
366 0
377 0
438 0
499 0
514 0
569 0
578 0
629 0
657 0
648 0
692 0
721 0
736 0
747 0
267 0
763 0
828 0
851 0
944 0
834 0
324 0
958 0
846 0
759 0
149 0
982 0
889 0
712 0
862 0
965 0
919 0
927 0
897 0
933 0
815 0
873 0
318 0
211 0
117 0
487 0
537 0
631 0
461 0
664 0
474 0
172 0
135 0
232 0
245 0
254 0
352 0
153 0
971 0
996 0
775 0
676 0
556 0
455 0
422 0
525 0
443 0
542 0
416 0
613 0
685 0
383 0
395 0
581 0
593 0
184 0
191 0
788 0
794 0
286 0
298 0
